424 5
10 10 10 10 10 

0 0 0 0 0 0 5 2 14 26 38 50 
0 0 0 0 0 0 5 3 4 5 6 7 
8 3 0 0 0 0 4 12 11 10 8 
2 6 0 0 0 0 3 12 11 8 
1 10 0 0 0 0 3 12 10 8 
4 9 0 0 0 0 3 11 10 9 
3 9 0 0 0 0 2 10 8 
10 5 0 0 0 0 1 9 
3 10 0 0 0 0 1 13 
2 9 0 0 0 0 2 13 395 
10 4 0 0 0 0 1 13 
3 10 0 0 0 0 1 13 
0 0 0 0 0 0 1 62 
0 0 0 0 0 0 4 15 16 18 24 
5 0 0 5 0 0 4 23 21 20 17 
2 0 0 6 0 0 3 22 21 19 
10 0 0 4 0 0 1 19 
2 0 0 7 0 0 1 20 
2 0 0 10 0 0 1 25 
7 0 0 10 0 0 1 25 
10 0 0 7 0 0 1 25 
8 0 0 9 0 0 2 25 365 
9 0 0 8 0 0 1 25 
8 0 0 9 0 0 1 25 
0 0 0 0 0 0 1 62 
0 0 0 0 0 0 8 27 29 30 31 33 34 35 36 
9 3 0 0 0 0 1 28 
9 9 0 0 0 0 1 32 
10 6 0 0 0 0 1 32 
9 10 0 0 0 0 1 32 
2 10 0 0 0 0 2 32 280 
5 8 0 0 0 0 1 37 
8 6 0 0 0 0 1 37 
2 10 0 0 0 0 1 37 
8 6 0 0 0 0 1 37 
10 7 0 0 0 0 1 37 
0 0 0 0 0 0 1 62 
0 0 0 0 0 0 8 39 40 42 43 45 46 47 48 
10 0 0 0 5 0 1 41 
6 0 0 0 6 0 1 41 
3 0 0 0 6 0 1 44 
8 0 0 0 9 0 1 44 
9 0 0 0 10 0 1 44 
2 0 0 0 7 0 2 49 54 
8 0 0 0 9 0 1 49 
6 0 0 0 9 0 1 49 
9 0 0 0 10 0 1 49 
7 0 0 0 4 0 1 49 
0 0 0 0 0 0 1 62 
0 0 0 0 0 0 5 51 52 53 54 55 
4 4 0 0 0 0 3 60 57 56 
2 9 0 0 0 0 2 59 56 
4 8 0 0 0 0 2 60 58 
6 5 0 0 0 0 2 59 58 
3 9 0 0 0 0 2 59 58 
7 10 0 0 0 0 2 58 257 
6 9 0 0 0 0 1 58 
2 6 0 0 0 0 1 61 
9 6 0 0 0 0 1 61 
6 9 0 0 0 0 1 61 
0 0 0 0 0 0 1 62 
0 0 0 0 0 0 5 63 75 87 99 111 
0 0 0 0 0 0 5 64 65 67 68 69 
7 2 0 0 0 0 1 66 
8 9 0 0 0 0 1 66 
8 10 0 0 0 0 5 73 72 71 70 336 
3 9 0 0 0 0 4 73 72 71 70 
8 6 0 0 0 0 2 72 71 
10 3 0 0 0 0 1 70 
10 10 0 0 0 0 1 74 
3 8 0 0 0 0 1 74 
9 10 0 0 0 0 1 74 
10 8 0 0 0 0 1 74 
0 0 0 0 0 0 1 123 
0 0 0 0 0 0 4 76 77 79 85 
8 0 0 0 3 0 4 82 81 80 78 
4 0 0 0 6 0 4 82 81 80 226 
4 0 0 0 10 0 2 84 83 
1 0 0 0 10 0 1 80 
1 0 0 0 9 0 1 86 
2 0 0 0 8 0 1 86 
8 0 0 0 5 0 1 86 
5 0 0 0 10 0 1 86 
10 0 0 0 4 0 1 86 
3 0 0 0 10 0 1 86 
0 0 0 0 0 0 1 123 
0 0 0 0 0 0 4 88 89 91 92 
2 0 0 3 0 0 5 97 95 93 90 318 
8 0 0 8 0 0 3 96 95 90 
8 0 0 10 0 0 1 94 
1 0 0 8 0 0 1 93 
2 0 0 3 0 0 1 93 
6 0 0 10 0 0 1 98 
3 0 0 10 0 0 1 98 
7 0 0 8 0 0 1 98 
9 0 0 8 0 0 1 98 
7 0 0 7 0 0 1 98 
0 0 0 0 0 0 1 123 
0 0 0 0 0 0 6 100 101 102 108 109 405 
10 0 0 0 0 3 2 107 103 
1 0 0 0 0 3 2 107 104 
3 0 0 0 0 7 2 106 105 
8 0 0 0 0 6 1 106 
10 0 0 0 0 10 1 105 
1 0 0 0 0 10 1 110 
4 0 0 0 0 10 1 110 
3 0 0 0 0 8 1 110 
7 0 0 0 0 9 1 110 
9 0 0 0 0 9 1 110 
0 0 0 0 0 0 1 123 
0 0 0 0 0 0 4 112 113 114 115 
5 0 0 0 1 0 3 121 117 116 
10 0 0 0 8 0 3 121 117 116 
10 0 0 0 10 0 3 121 117 116 
4 0 0 0 8 0 4 121 120 117 409 
10 0 0 0 8 0 3 120 119 118 
1 0 0 0 8 0 2 119 118 
4 0 0 0 8 0 1 122 
8 0 0 0 5 0 1 122 
6 0 0 0 9 0 1 122 
6 0 0 0 10 0 1 122 
0 0 0 0 0 0 1 123 
0 0 0 0 0 0 5 124 156 188 220 252 
0 0 0 0 0 0 8 125 128 130 132 134 152 153 154 
9 2 0 7 0 7 4 146 138 127 126 
2 7 0 7 0 6 3 145 139 129 
10 9 0 4 0 8 4 149 148 141 131 
7 8 0 6 0 10 4 151 147 141 131 
6 10 0 5 0 9 2 141 131 
10 9 0 4 0 6 5 147 146 142 141 135 
2 7 0 9 0 7 3 142 137 133 
7 8 0 6 0 8 5 150 147 144 141 138 
2 7 0 10 0 8 1 135 
5 10 0 10 0 6 2 148 146 
9 4 0 9 0 7 2 136 312 
5 5 0 9 0 6 1 140 
6 10 0 7 0 8 1 143 
5 10 0 9 0 10 1 145 
10 6 0 9 0 5 1 144 
10 9 0 8 0 9 1 155 
10 8 0 5 0 7 1 155 
9 7 0 9 0 4 1 155 
10 6 0 10 0 10 1 155 
3 10 0 5 0 10 1 155 
5 7 0 5 0 8 1 155 
9 10 0 10 0 7 1 155 
7 8 0 8 0 5 1 155 
8 6 0 10 0 7 1 155 
3 4 0 10 0 7 1 155 
7 6 0 8 0 8 1 155 
6 10 0 8 0 10 1 155 
8 10 0 7 0 7 1 155 
9 6 0 4 0 10 1 155 
7 6 0 7 0 5 1 155 
0 0 0 0 0 0 1 424 
0 0 0 0 0 0 6 157 158 159 160 161 172 
2 2 3 0 0 4 4 174 164 163 162 
9 7 5 0 0 4 5 174 170 168 163 162 
3 6 4 0 0 9 3 168 163 162 
10 6 9 0 0 10 3 173 164 162 
1 10 10 0 0 10 5 177 176 173 169 164 
10 7 7 0 0 7 3 169 166 165 
10 10 7 0 0 9 2 173 167 
3 7 6 0 0 9 2 170 168 
9 8 6 0 0 10 2 176 171 
1 10 5 0 0 10 2 176 171 
9 9 8 0 0 5 2 176 171 
8 8 9 0 0 10 1 171 
6 9 9 0 0 8 1 171 
9 8 3 0 0 5 1 171 
2 10 8 0 0 6 6 186 185 184 181 180 175 
4 8 8 0 0 5 4 186 181 180 175 
1 10 10 0 0 7 2 184 175 
1 6 9 0 0 8 4 186 184 183 180 
9 7 5 0 0 10 2 182 178 
7 7 9 0 0 9 3 185 184 182 
10 5 10 0 0 7 4 185 184 182 419 
6 5 8 0 0 8 1 179 
6 10 8 0 0 3 1 183 
5 6 5 0 0 6 1 182 
2 8 10 0 0 9 1 182 
10 6 10 0 0 6 1 187 
5 6 8 0 0 7 1 187 
7 6 9 0 0 10 1 187 
4 10 10 0 0 4 1 187 
1 8 7 0 0 10 1 187 
0 0 0 0 0 0 1 424 
0 0 0 0 0 0 6 189 190 191 192 195 218 
4 0 4 0 4 6 4 217 199 196 193 
6 0 8 0 8 8 4 202 200 199 193 
3 0 5 0 10 6 4 202 196 194 193 
10 0 10 0 9 7 3 205 199 193 
4 0 10 0 6 8 3 209 204 197 
3 0 4 0 5 8 4 214 213 200 198 
2 0 7 0 8 9 5 216 213 203 202 200 
1 0 10 0 6 8 5 213 212 209 208 203 
7 0 6 0 10 8 3 213 212 198 
6 0 7 0 7 10 3 215 208 203 
2 0 10 0 2 5 2 209 201 
10 0 7 0 4 5 3 212 208 206 
1 0 9 0 5 5 1 203 
7 0 10 0 10 4 2 212 207 
10 0 7 0 10 6 1 206 
6 0 10 0 9 10 2 214 211 
4 0 10 0 9 8 2 213 210 
1 0 6 0 10 10 1 207 
9 0 10 0 7 3 1 210 
1 0 5 0 2 8 1 211 
7 0 9 0 9 8 1 214 
10 0 4 0 9 9 1 219 
4 0 2 0 10 8 1 219 
1 0 7 0 9 9 1 219 
8 0 10 0 10 5 1 219 
2 0 6 0 9 10 1 219 
4 0 9 0 7 9 1 219 
3 0 4 0 7 7 1 219 
1 0 10 0 5 8 1 219 
9 0 9 0 9 10 1 219 
0 0 0 0 0 0 1 424 
0 0 0 0 0 0 6 221 222 223 224 229 250 
4 3 1 0 0 4 4 232 227 226 225 
1 7 8 0 0 8 5 239 238 232 231 228 
7 6 10 0 0 7 6 249 246 243 240 239 227 
10 7 8 0 0 4 5 248 239 238 231 228 
9 10 9 0 0 10 4 243 240 238 228 
6 9 7 0 0 4 3 244 233 230 
3 9 8 0 0 7 4 244 238 237 234 
4 7 3 0 0 10 2 244 230 
5 8 6 0 0 10 3 247 233 232 
4 10 9 0 0 3 3 246 237 234 
9 8 10 0 0 8 1 234 
10 5 7 0 0 6 2 243 236 
3 10 8 0 0 3 2 243 237 
8 5 7 0 0 10 1 235 
7 8 3 0 0 8 1 236 
10 9 9 0 0 5 1 241 
5 8 5 0 0 10 1 242 
10 7 7 0 0 4 1 245 
1 10 9 0 0 10 1 241 
4 9 9 0 0 10 1 245 
3 10 7 0 0 5 1 251 
2 4 9 0 0 10 1 251 
5 10 4 0 0 9 1 251 
2 8 8 0 0 10 1 251 
9 10 7 0 0 9 1 251 
1 7 10 0 0 10 1 251 
9 5 10 0 0 9 1 251 
5 10 9 0 0 8 1 251 
9 2 9 0 0 4 1 251 
10 4 9 0 0 10 1 251 
0 0 0 0 0 0 1 424 
0 0 0 0 0 0 5 253 254 256 257 262 
8 0 0 1 0 0 4 261 260 259 258 
10 0 0 6 0 0 1 255 
6 0 0 3 0 0 3 260 259 258 
8 0 0 10 0 0 2 261 258 
4 0 0 9 0 0 1 258 
10 0 0 9 0 0 1 263 
6 0 0 9 0 0 1 263 
1 0 0 10 0 0 1 263 
6 0 0 9 0 0 1 263 
7 0 0 9 0 0 1 263 
0 0 0 0 0 0 5 264 286 308 320 342 
0 0 0 0 0 0 9 265 266 267 268 269 270 273 275 276 
7 0 1 0 0 1 4 284 283 281 272 
3 0 5 0 0 9 4 284 283 274 271 
10 0 7 0 0 8 4 283 282 278 274 
10 0 8 0 0 9 3 283 274 271 
9 0 7 0 0 10 3 278 274 271 
5 0 9 0 0 9 3 283 278 274 
5 0 9 0 0 4 4 282 281 280 277 
6 0 10 0 0 10 2 282 274 
1 0 7 0 0 8 3 282 280 278 
10 0 5 0 0 8 2 280 277 
2 0 10 0 0 6 2 280 277 
6 0 6 0 0 10 1 277 
10 0 10 0 0 7 1 279 
6 0 10 0 0 6 1 281 
7 0 10 0 0 9 1 285 
4 0 8 0 0 7 1 285 
5 0 7 0 0 9 1 285 
3 0 8 0 0 6 1 285 
7 0 6 0 0 6 1 285 
8 0 7 0 0 8 1 285 
0 0 0 0 0 0 1 424 
0 0 0 0 0 0 6 287 288 289 290 293 294 
5 0 0 5 2 0 3 306 299 291 
9 0 0 6 10 0 3 306 296 292 
5 0 0 5 6 0 5 305 301 298 296 295 
9 0 0 6 6 0 3 299 297 295 
2 0 0 6 6 0 4 305 301 296 295 
3 0 0 10 8 0 5 305 304 303 301 299 
1 0 0 10 10 0 5 305 304 303 301 299 
5 0 0 7 10 0 3 306 299 295 
2 0 0 9 10 0 3 304 303 302 
6 0 0 6 7 0 2 304 300 
2 0 0 8 2 0 2 306 301 
9 0 0 7 10 0 2 303 302 
5 0 0 10 7 0 1 300 
9 0 0 7 9 0 1 302 
2 0 0 9 10 0 1 302 
7 0 0 10 6 0 1 307 
5 0 0 7 6 0 1 307 
1 0 0 9 9 0 1 307 
5 0 0 7 7 0 1 307 
8 0 0 6 9 0 1 307 
0 0 0 0 0 0 1 424 
0 0 0 0 0 0 6 309 311 312 316 317 318 
7 0 0 5 0 0 3 315 313 310 
7 0 0 6 0 0 1 314 
3 0 0 10 0 0 1 313 
6 0 0 5 0 0 1 313 
9 0 0 6 0 0 1 319 
4 0 0 7 0 0 1 319 
3 0 0 7 0 0 1 319 
9 0 0 9 0 0 1 319 
10 0 0 10 0 0 1 319 
3 0 0 10 0 0 1 319 
0 0 0 0 0 0 5 364 376 388 400 412 
0 0 0 0 0 0 6 321 322 323 325 326 329 
8 0 0 2 2 0 3 340 328 324 
5 0 0 6 10 0 4 338 333 328 327 
4 0 0 4 5 0 5 339 338 336 332 328 
2 0 0 9 7 0 3 339 338 327 
9 0 0 10 10 0 2 331 327 
1 0 0 8 8 0 2 338 328 
1 0 0 9 6 0 4 337 336 332 330 
4 0 0 6 7 0 3 337 331 330 
3 0 0 8 10 0 2 338 333 
8 0 0 4 8 0 1 335 
7 0 0 9 8 0 1 334 
5 0 0 8 10 0 1 334 
7 0 0 8 10 0 1 336 
8 0 0 9 6 0 1 341 
1 0 0 10 10 0 1 341 
7 0 0 7 7 0 1 341 
2 0 0 10 10 0 1 341 
4 0 0 8 6 0 1 341 
9 0 0 10 6 0 1 341 
9 0 0 5 4 0 1 341 
0 0 0 0 0 0 1 424 
0 0 0 0 0 0 4 343 344 345 346 
8 0 0 1 0 2 5 354 353 351 350 349 
9 0 0 7 0 3 4 353 351 349 347 
9 0 0 7 0 7 4 353 349 348 347 
2 0 0 1 0 7 3 350 348 347 
5 0 0 10 0 10 4 356 355 354 352 
2 0 0 6 0 7 4 356 355 354 352 
5 0 0 10 0 8 3 356 355 352 
4 0 0 10 0 10 3 356 355 352 
5 0 0 6 0 5 2 355 352 
3 0 0 5 0 7 5 362 361 359 358 357 
1 0 0 6 0 5 5 362 361 359 358 357 
7 0 0 8 0 10 4 361 359 358 357 
10 0 0 10 0 10 3 362 361 358 
3 0 0 9 0 7 3 362 361 357 
8 0 0 7 0 10 1 360 
7 0 0 10 0 10 1 360 
7 0 0 8 0 8 1 360 
4 0 0 10 0 10 1 363 
4 0 0 10 0 8 1 363 
10 0 0 9 0 6 1 363 
0 0 0 0 0 0 1 424 
0 0 0 0 0 0 4 365 366 367 370 
1 1 0 0 0 0 3 372 369 368 
6 7 0 0 0 0 3 373 372 371 
9 9 0 0 0 0 2 372 369 
2 6 0 0 0 0 2 373 371 
8 10 0 0 0 0 1 374 
5 8 0 0 0 0 1 371 
10 9 0 0 0 0 1 375 
8 7 0 0 0 0 1 375 
7 9 0 0 0 0 1 375 
5 9 0 0 0 0 1 375 
0 0 0 0 0 0 1 424 
0 0 0 0 0 0 3 377 378 381 
1 0 0 0 1 0 4 386 382 380 379 
2 0 0 0 7 0 3 385 382 379 
9 0 0 0 8 0 2 384 383 
3 0 0 0 10 0 2 385 384 
2 0 0 0 5 0 1 382 
6 0 0 0 10 0 1 383 
9 0 0 0 10 0 1 387 
2 0 0 0 8 0 1 387 
9 0 0 0 8 0 1 387 
5 0 0 0 8 0 1 387 
0 0 0 0 0 0 1 424 
0 0 0 0 0 0 5 389 390 392 393 398 
10 0 0 4 0 0 3 397 396 391 
7 0 0 4 0 0 2 396 394 
10 0 0 6 0 0 1 394 
5 0 0 8 0 0 1 395 
4 0 0 9 0 0 1 395 
6 0 0 10 0 0 1 399 
2 0 0 9 0 0 1 399 
2 0 0 10 0 0 1 399 
6 0 0 7 0 0 1 399 
3 0 0 8 0 0 1 399 
0 0 0 0 0 0 1 424 
0 0 0 0 0 0 6 401 402 403 404 405 407 
6 0 0 0 0 4 2 408 406 
7 0 0 0 0 4 2 408 406 
1 0 0 0 0 5 2 408 406 
10 0 0 0 0 10 2 408 406 
1 0 0 0 0 10 2 410 408 
2 0 0 0 0 8 2 410 409 
10 0 0 0 0 10 2 410 409 
7 0 0 0 0 8 1 409 
10 0 0 0 0 7 1 411 
10 0 0 0 0 9 1 411 
0 0 0 0 0 0 1 424 
0 0 0 0 0 0 4 413 414 415 422 
5 0 0 0 0 2 3 421 418 417 
8 0 0 0 0 8 3 421 418 416 
9 0 0 0 0 10 3 421 417 416 
3 0 0 0 0 4 2 420 419 
4 0 0 0 0 6 1 420 
3 0 0 0 0 7 1 419 
9 0 0 0 0 9 1 423 
7 0 0 0 0 10 1 423 
5 0 0 0 0 9 1 423 
4 0 0 0 0 10 1 423 
0 0 0 0 0 0 1 424 
0 0 0 0 0 0 0 
